benchmark/results/graph__10-1000-0.10-02_13/graph__10-1000-0.10-02_13_QuintonOs_Benders_sub.lp
\ This file has been generated by DOcplex
\ ENCODING=ISO-8859-1
\Problem name: Quinton Bounded Benders_dual_sub

Minimize
 obj: 0.000839630563 pi_nr_a0 + 0.000798722045 pi_nr_a1
      + 0.000793650794 pi_nr_a2 + 0.001472754050 pi_nr_a3
      + 0.001074113856 pi_nr_a4 + 0.006134969325 pi_nr_a5
      + 0.001086956522 pi_nr_a6 + 0.001048218029 pi_nr_a7
      + 0.000914076782 pi_nr_a8 + 0.000773993808 pi_nr_a9 + pi_p_a1_a0
      + pi_p_a3_a0 + pi_p_a1_a4 + pi_p_a3_a9 + pi_p_a7_a8 + pi_p_a4_a8
      + pi_p_a7_a6 + 2584 pi_d_a0_a1_proc_0 + pi_d_a1_a0_proc_1
      + 2585 pi_d_a1_a0_proc_0 + 1281 pi_d_a0_a2_proc_0 + 1304 pi_d_a2_a0_proc_0
      + 1304 pi_d_a0_a3_proc_1 + 1304 pi_d_a0_a3_proc_0 + 1281 pi_d_a3_a0_proc_1
      + 1281 pi_d_a3_a0_proc_0 + 2584 pi_d_a0_a4_proc_0 + pi_d_a4_a0_proc_1
      + 2585 pi_d_a4_a0_proc_0 + 1304 pi_d_a0_a5_proc_1 + 1304 pi_d_a0_a5_proc_0
      + 1281 pi_d_a5_a0_proc_1 + 1281 pi_d_a5_a0_proc_0 + 1304 pi_d_a0_a6_proc_1
      + 1304 pi_d_a0_a6_proc_0 + 1281 pi_d_a6_a0_proc_1 + 1281 pi_d_a6_a0_proc_0
      + 1281 pi_d_a0_a7_proc_0 + 1304 pi_d_a7_a0_proc_0 + pi_d_a0_a8_proc_1
      + 2585 pi_d_a0_a8_proc_0 + 2584 pi_d_a8_a0_proc_0 + 1304 pi_d_a0_a9_proc_0
      + 1281 pi_d_a9_a0_proc_0 + 1281 pi_d_a1_a2_proc_0 + 1304 pi_d_a2_a1_proc_0
      + 1304 pi_d_a1_a3_proc_1 + 1304 pi_d_a1_a3_proc_0 + 1281 pi_d_a3_a1_proc_1
      + 1281 pi_d_a3_a1_proc_0 + pi_d_a1_a4_proc_1 + 2585 pi_d_a1_a4_proc_0
      + 2584 pi_d_a4_a1_proc_0 + 1304 pi_d_a1_a5_proc_1 + 1304 pi_d_a1_a5_proc_0
      + 1281 pi_d_a5_a1_proc_1 + 1281 pi_d_a5_a1_proc_0 + 1304 pi_d_a1_a6_proc_1
      + 1304 pi_d_a1_a6_proc_0 + 1281 pi_d_a6_a1_proc_1 + 1281 pi_d_a6_a1_proc_0
      + 1304 pi_d_a1_a7_proc_0 + 1281 pi_d_a7_a1_proc_0 + 2 pi_d_a1_a8_proc_1
      + 2586 pi_d_a1_a8_proc_0 - pi_d_a8_a1_proc_1 + 2583 pi_d_a8_a1_proc_0
      + 1281 pi_d_a1_a9_proc_0 + 1304 pi_d_a9_a1_proc_0 + pi_d_a3_a2_proc_0
      + 1304 pi_d_a2_a4_proc_0 + 1281 pi_d_a4_a2_proc_0 + pi_d_a5_a2_proc_0
      + pi_d_a6_a2_proc_0 + pi_d_a7_a2_proc_0 + 1304 pi_d_a2_a8_proc_0
      + 1281 pi_d_a8_a2_proc_0 + pi_d_a2_a9_proc_0 + 1304 pi_d_a3_a4_proc_1
      + 1304 pi_d_a3_a4_proc_0 + 1281 pi_d_a4_a3_proc_1 + 1281 pi_d_a4_a3_proc_0
      + 2585 pi_d_a3_a5_proc_1 + pi_d_a3_a5_proc_0 + 2584 pi_d_a5_a3_proc_1
      + 2585 pi_d_a3_a6_proc_1 + pi_d_a3_a6_proc_0 + 2584 pi_d_a6_a3_proc_1
      + pi_d_a3_a7_proc_0 + 1304 pi_d_a3_a8_proc_1 + 1304 pi_d_a3_a8_proc_0
      + 1281 pi_d_a8_a3_proc_1 + 1281 pi_d_a8_a3_proc_0 + pi_d_a3_a9_proc_0
      + 1304 pi_d_a4_a5_proc_1 + 1304 pi_d_a4_a5_proc_0 + 1281 pi_d_a5_a4_proc_1
      + 1281 pi_d_a5_a4_proc_0 + 1304 pi_d_a4_a6_proc_1 + 1304 pi_d_a4_a6_proc_0
      + 1281 pi_d_a6_a4_proc_1 + 1281 pi_d_a6_a4_proc_0 + 1281 pi_d_a4_a7_proc_0
      + 1304 pi_d_a7_a4_proc_0 + pi_d_a4_a8_proc_1 + 2585 pi_d_a4_a8_proc_0
      + 2584 pi_d_a8_a4_proc_0 + 1304 pi_d_a4_a9_proc_0 + 1281 pi_d_a9_a4_proc_0
      + 2584 pi_d_a5_a6_proc_1 + 2585 pi_d_a6_a5_proc_1 + pi_d_a6_a5_proc_0
      + pi_d_a7_a5_proc_0 + 1281 pi_d_a5_a8_proc_1 + 1281 pi_d_a5_a8_proc_0
      + 1304 pi_d_a8_a5_proc_1 + 1304 pi_d_a8_a5_proc_0 + pi_d_a5_a9_proc_0
      + pi_d_a6_a7_proc_0 + 1281 pi_d_a6_a8_proc_1 + 1281 pi_d_a6_a8_proc_0
      + 1304 pi_d_a8_a6_proc_1 + 1304 pi_d_a8_a6_proc_0 + pi_d_a6_a9_proc_0
      + 1304 pi_d_a7_a8_proc_0 + 1281 pi_d_a8_a7_proc_0 + pi_d_a7_a9_proc_0
      + 1304 pi_d_a8_a9_proc_0 + 1281 pi_d_a9_a8_proc_0 + pi_y2_a0_proc_1
      + pi_y2_a1_proc_1 + pi_y2_a2_proc_0 + pi_y2_a3_proc_0 + pi_y2_a4_proc_1
      + pi_y2_a5_proc_0 + pi_y2_a6_proc_0 + pi_y2_a7_proc_0 + pi_y2_a8_proc_1
      + pi_y2_a9_proc_0
Subject To
 c1: pi_nr_a0 + pi_nr_a1 + pi_nr_a2 + pi_nr_a3 + pi_nr_a4 + pi_nr_a5 + pi_nr_a6
     + pi_nr_a7 + pi_nr_a8 + pi_nr_a9 - pi_y1_a0 - pi_y1_a1 - pi_y1_a2
     - pi_y1_a3 - pi_y1_a4 - pi_y1_a5 - pi_y1_a6 - pi_y1_a7 - pi_y1_a8
     - pi_y1_a9 >= 1
 c2: - pi_p_a1_a0 - pi_p_a3_a0 + pi_p_a0_a5 + pi_d_a0_a1_proc_1
     + pi_d_a0_a1_proc_0 - pi_d_a1_a0_proc_1 - pi_d_a1_a0_proc_0
     + pi_d_a0_a2_proc_0 - pi_d_a2_a0_proc_0 + pi_d_a0_a3_proc_1
     + pi_d_a0_a3_proc_0 - pi_d_a3_a0_proc_1 - pi_d_a3_a0_proc_0
     + pi_d_a0_a4_proc_1 + pi_d_a0_a4_proc_0 - pi_d_a4_a0_proc_1
     - pi_d_a4_a0_proc_0 + pi_d_a0_a5_proc_1 + pi_d_a0_a5_proc_0
     - pi_d_a5_a0_proc_1 - pi_d_a5_a0_proc_0 + pi_d_a0_a6_proc_1
     + pi_d_a0_a6_proc_0 - pi_d_a6_a0_proc_1 - pi_d_a6_a0_proc_0
     + pi_d_a0_a7_proc_0 - pi_d_a7_a0_proc_0 + pi_d_a0_a8_proc_1
     + pi_d_a0_a8_proc_0 - pi_d_a8_a0_proc_1 - pi_d_a8_a0_proc_0
     + pi_d_a0_a9_proc_0 - pi_d_a9_a0_proc_0 >= 0
 c3: 697 pi_p_a0_a5 + 697 pi_d_a0_a1_proc_0 + 697 pi_d_a0_a2_proc_0
     + 697 pi_d_a0_a3_proc_0 + 697 pi_d_a0_a4_proc_0 + 697 pi_d_a0_a5_proc_0
     + 697 pi_d_a0_a6_proc_0 + 697 pi_d_a0_a7_proc_0 + 697 pi_d_a0_a8_proc_0
     + 697 pi_d_a0_a9_proc_0 + pi_y1_a0 + pi_y2_a0_proc_0 >= 0
 c4: 1191 pi_p_a0_a5 + 1191 pi_d_a0_a1_proc_1 + 1191 pi_d_a0_a3_proc_1
     + 1191 pi_d_a0_a4_proc_1 + 1191 pi_d_a0_a5_proc_1 + 1191 pi_d_a0_a6_proc_1
     + 1191 pi_d_a0_a8_proc_1 + pi_y1_a0 + pi_y2_a0_proc_1 >= 0
 c5: pi_p_a1_a0 - pi_p_a2_a1 + pi_p_a1_a4 - pi_d_a0_a1_proc_1
     - pi_d_a0_a1_proc_0 + pi_d_a1_a0_proc_1 + pi_d_a1_a0_proc_0
     + pi_d_a1_a2_proc_0 - pi_d_a2_a1_proc_0 + pi_d_a1_a3_proc_1
     + pi_d_a1_a3_proc_0 - pi_d_a3_a1_proc_1 - pi_d_a3_a1_proc_0
     + pi_d_a1_a4_proc_1 + pi_d_a1_a4_proc_0 - pi_d_a4_a1_proc_1
     - pi_d_a4_a1_proc_0 + pi_d_a1_a5_proc_1 + pi_d_a1_a5_proc_0
     - pi_d_a5_a1_proc_1 - pi_d_a5_a1_proc_0 + pi_d_a1_a6_proc_1
     + pi_d_a1_a6_proc_0 - pi_d_a6_a1_proc_1 - pi_d_a6_a1_proc_0
     + pi_d_a1_a7_proc_0 - pi_d_a7_a1_proc_0 + pi_d_a1_a8_proc_1
     + pi_d_a1_a8_proc_0 - pi_d_a8_a1_proc_1 - pi_d_a8_a1_proc_0
     + pi_d_a1_a9_proc_0 - pi_d_a9_a1_proc_0 >= 0
 c6: 943 pi_p_a1_a0 + 943 pi_p_a1_a4 + 943 pi_d_a1_a0_proc_0
     + 943 pi_d_a1_a2_proc_0 + 943 pi_d_a1_a3_proc_0 + 943 pi_d_a1_a4_proc_0
     + 943 pi_d_a1_a5_proc_0 + 943 pi_d_a1_a6_proc_0 + 943 pi_d_a1_a7_proc_0
     + 943 pi_d_a1_a8_proc_0 + 943 pi_d_a1_a9_proc_0 + pi_y1_a1
     + pi_y2_a1_proc_0 >= 0
 c7: 1252 pi_p_a1_a0 + 1252 pi_p_a1_a4 + 1252 pi_d_a1_a0_proc_1
     + 1252 pi_d_a1_a3_proc_1 + 1252 pi_d_a1_a4_proc_1 + 1252 pi_d_a1_a5_proc_1
     + 1252 pi_d_a1_a6_proc_1 + 1252 pi_d_a1_a8_proc_1 + pi_y1_a1
     + pi_y2_a1_proc_1 >= 0
 c8: pi_p_a2_a1 + pi_p_a2_a7 - pi_p_a9_a2 - pi_d_a0_a2_proc_0
     + pi_d_a2_a0_proc_0 - pi_d_a1_a2_proc_0 + pi_d_a2_a1_proc_0
     + pi_d_a2_a3_proc_0 - pi_d_a3_a2_proc_0 + pi_d_a2_a4_proc_0
     - pi_d_a4_a2_proc_0 + pi_d_a2_a5_proc_0 - pi_d_a5_a2_proc_0
     + pi_d_a2_a6_proc_0 - pi_d_a6_a2_proc_0 + pi_d_a2_a7_proc_0
     - pi_d_a7_a2_proc_0 + pi_d_a2_a8_proc_0 - pi_d_a8_a2_proc_0
     + pi_d_a2_a9_proc_0 - pi_d_a9_a2_proc_0 >= 0
 c9: 1260 pi_p_a2_a1 + 1260 pi_p_a2_a7 + 1260 pi_d_a2_a0_proc_0
     + 1260 pi_d_a2_a1_proc_0 + 1260 pi_d_a2_a3_proc_0 + 1260 pi_d_a2_a4_proc_0
     + 1260 pi_d_a2_a5_proc_0 + 1260 pi_d_a2_a6_proc_0 + 1260 pi_d_a2_a7_proc_0
     + 1260 pi_d_a2_a8_proc_0 + 1260 pi_d_a2_a9_proc_0 + pi_y1_a2
     + pi_y2_a2_proc_0 >= 0
 c10: pi_p_a3_a0 - pi_p_a6_a3 - pi_p_a8_a3 + pi_p_a3_a9 - pi_d_a0_a3_proc_1
      - pi_d_a0_a3_proc_0 + pi_d_a3_a0_proc_1 + pi_d_a3_a0_proc_0
      - pi_d_a1_a3_proc_1 - pi_d_a1_a3_proc_0 + pi_d_a3_a1_proc_1
      + pi_d_a3_a1_proc_0 - pi_d_a2_a3_proc_0 + pi_d_a3_a2_proc_0
      + pi_d_a3_a4_proc_1 + pi_d_a3_a4_proc_0 - pi_d_a4_a3_proc_1
      - pi_d_a4_a3_proc_0 + pi_d_a3_a5_proc_1 + pi_d_a3_a5_proc_0
      - pi_d_a5_a3_proc_1 - pi_d_a5_a3_proc_0 + pi_d_a3_a6_proc_1
      + pi_d_a3_a6_proc_0 - pi_d_a6_a3_proc_1 - pi_d_a6_a3_proc_0
      + pi_d_a3_a7_proc_0 - pi_d_a7_a3_proc_0 + pi_d_a3_a8_proc_1
      + pi_d_a3_a8_proc_0 - pi_d_a8_a3_proc_1 - pi_d_a8_a3_proc_0
      + pi_d_a3_a9_proc_0 - pi_d_a9_a3_proc_0 >= 0
 c11: 679 pi_p_a3_a0 + 679 pi_p_a3_a9 + 679 pi_d_a3_a0_proc_0
      + 679 pi_d_a3_a1_proc_0 + 679 pi_d_a3_a2_proc_0 + 679 pi_d_a3_a4_proc_0
      + 679 pi_d_a3_a5_proc_0 + 679 pi_d_a3_a6_proc_0 + 679 pi_d_a3_a7_proc_0
      + 679 pi_d_a3_a8_proc_0 + 679 pi_d_a3_a9_proc_0 + pi_y1_a3
      + pi_y2_a3_proc_0 >= 0
 c12: 1053 pi_p_a3_a0 + 1053 pi_p_a3_a9 + 1053 pi_d_a3_a0_proc_1
      + 1053 pi_d_a3_a1_proc_1 + 1053 pi_d_a3_a4_proc_1 + 1053 pi_d_a3_a5_proc_1
      + 1053 pi_d_a3_a6_proc_1 + 1053 pi_d_a3_a8_proc_1 + pi_y1_a3
      + pi_y2_a3_proc_1 >= 0
 c13: - pi_p_a1_a4 - pi_p_a5_a4 - pi_p_a9_a4 + pi_p_a4_a8 + pi_p_a4_a6
      - pi_d_a0_a4_proc_1 - pi_d_a0_a4_proc_0 + pi_d_a4_a0_proc_1
      + pi_d_a4_a0_proc_0 - pi_d_a1_a4_proc_1 - pi_d_a1_a4_proc_0
      + pi_d_a4_a1_proc_1 + pi_d_a4_a1_proc_0 - pi_d_a2_a4_proc_0
      + pi_d_a4_a2_proc_0 - pi_d_a3_a4_proc_1 - pi_d_a3_a4_proc_0
      + pi_d_a4_a3_proc_1 + pi_d_a4_a3_proc_0 + pi_d_a4_a5_proc_1
      + pi_d_a4_a5_proc_0 - pi_d_a5_a4_proc_1 - pi_d_a5_a4_proc_0
      + pi_d_a4_a6_proc_1 + pi_d_a4_a6_proc_0 - pi_d_a6_a4_proc_1
      - pi_d_a6_a4_proc_0 + pi_d_a4_a7_proc_0 - pi_d_a7_a4_proc_0
      + pi_d_a4_a8_proc_1 + pi_d_a4_a8_proc_0 - pi_d_a8_a4_proc_1
      - pi_d_a8_a4_proc_0 + pi_d_a4_a9_proc_0 - pi_d_a9_a4_proc_0 >= 0
 c14: 598 pi_p_a4_a8 + 598 pi_p_a4_a6 + 598 pi_d_a4_a0_proc_0
      + 598 pi_d_a4_a1_proc_0 + 598 pi_d_a4_a2_proc_0 + 598 pi_d_a4_a3_proc_0
      + 598 pi_d_a4_a5_proc_0 + 598 pi_d_a4_a6_proc_0 + 598 pi_d_a4_a7_proc_0
      + 598 pi_d_a4_a8_proc_0 + 598 pi_d_a4_a9_proc_0 + pi_y1_a4
      + pi_y2_a4_proc_0 >= 0
 c15: 931 pi_p_a4_a8 + 931 pi_p_a4_a6 + 931 pi_d_a4_a0_proc_1
      + 931 pi_d_a4_a1_proc_1 + 931 pi_d_a4_a3_proc_1 + 931 pi_d_a4_a5_proc_1
      + 931 pi_d_a4_a6_proc_1 + 931 pi_d_a4_a8_proc_1 + pi_y1_a4
      + pi_y2_a4_proc_1 >= 0
 c16: pi_p_a5_a4 - pi_p_a0_a5 - pi_d_a0_a5_proc_1 - pi_d_a0_a5_proc_0
      + pi_d_a5_a0_proc_1 + pi_d_a5_a0_proc_0 - pi_d_a1_a5_proc_1
      - pi_d_a1_a5_proc_0 + pi_d_a5_a1_proc_1 + pi_d_a5_a1_proc_0
      - pi_d_a2_a5_proc_0 + pi_d_a5_a2_proc_0 - pi_d_a3_a5_proc_1
      - pi_d_a3_a5_proc_0 + pi_d_a5_a3_proc_1 + pi_d_a5_a3_proc_0
      - pi_d_a4_a5_proc_1 - pi_d_a4_a5_proc_0 + pi_d_a5_a4_proc_1
      + pi_d_a5_a4_proc_0 + pi_d_a5_a6_proc_1 + pi_d_a5_a6_proc_0
      - pi_d_a6_a5_proc_1 - pi_d_a6_a5_proc_0 + pi_d_a5_a7_proc_0
      - pi_d_a7_a5_proc_0 + pi_d_a5_a8_proc_1 + pi_d_a5_a8_proc_0
      - pi_d_a8_a5_proc_1 - pi_d_a8_a5_proc_0 + pi_d_a5_a9_proc_0
      - pi_d_a9_a5_proc_0 >= 0
 c17: 163 pi_p_a5_a4 + 163 pi_d_a5_a0_proc_0 + 163 pi_d_a5_a1_proc_0
      + 163 pi_d_a5_a2_proc_0 + 163 pi_d_a5_a3_proc_0 + 163 pi_d_a5_a4_proc_0
      + 163 pi_d_a5_a6_proc_0 + 163 pi_d_a5_a7_proc_0 + 163 pi_d_a5_a8_proc_0
      + 163 pi_d_a5_a9_proc_0 + pi_y1_a5 + pi_y2_a5_proc_0 >= 0
 c18: 1119 pi_p_a5_a4 + 1119 pi_d_a5_a0_proc_1 + 1119 pi_d_a5_a1_proc_1
      + 1119 pi_d_a5_a3_proc_1 + 1119 pi_d_a5_a4_proc_1 + 1119 pi_d_a5_a6_proc_1
      + 1119 pi_d_a5_a8_proc_1 + pi_y1_a5 + pi_y2_a5_proc_1 >= 0
 c19: pi_p_a6_a3 - pi_p_a7_a6 - pi_p_a4_a6 - pi_d_a0_a6_proc_1
      - pi_d_a0_a6_proc_0 + pi_d_a6_a0_proc_1 + pi_d_a6_a0_proc_0
      - pi_d_a1_a6_proc_1 - pi_d_a1_a6_proc_0 + pi_d_a6_a1_proc_1
      + pi_d_a6_a1_proc_0 - pi_d_a2_a6_proc_0 + pi_d_a6_a2_proc_0
      - pi_d_a3_a6_proc_1 - pi_d_a3_a6_proc_0 + pi_d_a6_a3_proc_1
      + pi_d_a6_a3_proc_0 - pi_d_a4_a6_proc_1 - pi_d_a4_a6_proc_0
      + pi_d_a6_a4_proc_1 + pi_d_a6_a4_proc_0 - pi_d_a5_a6_proc_1
      - pi_d_a5_a6_proc_0 + pi_d_a6_a5_proc_1 + pi_d_a6_a5_proc_0
      + pi_d_a6_a7_proc_0 - pi_d_a7_a6_proc_0 + pi_d_a6_a8_proc_1
      + pi_d_a6_a8_proc_0 - pi_d_a8_a6_proc_1 - pi_d_a8_a6_proc_0
      + pi_d_a6_a9_proc_0 - pi_d_a9_a6_proc_0 >= 0
 c20: 920 pi_p_a6_a3 + 920 pi_d_a6_a0_proc_0 + 920 pi_d_a6_a1_proc_0
      + 920 pi_d_a6_a2_proc_0 + 920 pi_d_a6_a3_proc_0 + 920 pi_d_a6_a4_proc_0
      + 920 pi_d_a6_a5_proc_0 + 920 pi_d_a6_a7_proc_0 + 920 pi_d_a6_a8_proc_0
      + 920 pi_d_a6_a9_proc_0 + pi_y1_a6 + pi_y2_a6_proc_0 >= 0
 c21: 947 pi_p_a6_a3 + 947 pi_d_a6_a0_proc_1 + 947 pi_d_a6_a1_proc_1
      + 947 pi_d_a6_a3_proc_1 + 947 pi_d_a6_a4_proc_1 + 947 pi_d_a6_a5_proc_1
      + 947 pi_d_a6_a8_proc_1 + pi_y1_a6 + pi_y2_a6_proc_1 >= 0
 c22: - pi_p_a2_a7 + pi_p_a7_a8 + pi_p_a7_a6 - pi_d_a0_a7_proc_0
      + pi_d_a7_a0_proc_0 - pi_d_a1_a7_proc_0 + pi_d_a7_a1_proc_0
      - pi_d_a2_a7_proc_0 + pi_d_a7_a2_proc_0 - pi_d_a3_a7_proc_0
      + pi_d_a7_a3_proc_0 - pi_d_a4_a7_proc_0 + pi_d_a7_a4_proc_0
      - pi_d_a5_a7_proc_0 + pi_d_a7_a5_proc_0 - pi_d_a6_a7_proc_0
      + pi_d_a7_a6_proc_0 + pi_d_a7_a8_proc_0 - pi_d_a8_a7_proc_0
      + pi_d_a7_a9_proc_0 - pi_d_a9_a7_proc_0 >= 0
 c23: 954 pi_p_a7_a8 + 954 pi_p_a7_a6 + 954 pi_d_a7_a0_proc_0
      + 954 pi_d_a7_a1_proc_0 + 954 pi_d_a7_a2_proc_0 + 954 pi_d_a7_a3_proc_0
      + 954 pi_d_a7_a4_proc_0 + 954 pi_d_a7_a5_proc_0 + 954 pi_d_a7_a6_proc_0
      + 954 pi_d_a7_a8_proc_0 + 954 pi_d_a7_a9_proc_0 + pi_y1_a7
      + pi_y2_a7_proc_0 >= 0
 c24: pi_p_a8_a3 - pi_p_a7_a8 - pi_p_a4_a8 + pi_p_a8_a9 - pi_d_a0_a8_proc_1
      - pi_d_a0_a8_proc_0 + pi_d_a8_a0_proc_1 + pi_d_a8_a0_proc_0
      - pi_d_a1_a8_proc_1 - pi_d_a1_a8_proc_0 + pi_d_a8_a1_proc_1
      + pi_d_a8_a1_proc_0 - pi_d_a2_a8_proc_0 + pi_d_a8_a2_proc_0
      - pi_d_a3_a8_proc_1 - pi_d_a3_a8_proc_0 + pi_d_a8_a3_proc_1
      + pi_d_a8_a3_proc_0 - pi_d_a4_a8_proc_1 - pi_d_a4_a8_proc_0
      + pi_d_a8_a4_proc_1 + pi_d_a8_a4_proc_0 - pi_d_a5_a8_proc_1
      - pi_d_a5_a8_proc_0 + pi_d_a8_a5_proc_1 + pi_d_a8_a5_proc_0
      - pi_d_a6_a8_proc_1 - pi_d_a6_a8_proc_0 + pi_d_a8_a6_proc_1
      + pi_d_a8_a6_proc_0 - pi_d_a7_a8_proc_0 + pi_d_a8_a7_proc_0
      + pi_d_a8_a9_proc_0 - pi_d_a9_a8_proc_0 >= 0
 c25: 1251 pi_p_a8_a3 + 1251 pi_p_a8_a9 + 1251 pi_d_a8_a0_proc_0
      + 1251 pi_d_a8_a1_proc_0 + 1251 pi_d_a8_a2_proc_0 + 1251 pi_d_a8_a3_proc_0
      + 1251 pi_d_a8_a4_proc_0 + 1251 pi_d_a8_a5_proc_0 + 1251 pi_d_a8_a6_proc_0
      + 1251 pi_d_a8_a7_proc_0 + 1251 pi_d_a8_a9_proc_0 + pi_y1_a8
      + pi_y2_a8_proc_0 >= 0
 c26: 1094 pi_p_a8_a3 + 1094 pi_p_a8_a9 + 1094 pi_d_a8_a0_proc_1
      + 1094 pi_d_a8_a1_proc_1 + 1094 pi_d_a8_a3_proc_1 + 1094 pi_d_a8_a4_proc_1
      + 1094 pi_d_a8_a5_proc_1 + 1094 pi_d_a8_a6_proc_1 + pi_y1_a8
      + pi_y2_a8_proc_1 >= 0
 c27: pi_p_a9_a2 - pi_p_a3_a9 + pi_p_a9_a4 - pi_p_a8_a9 - pi_d_a0_a9_proc_0
      + pi_d_a9_a0_proc_0 - pi_d_a1_a9_proc_0 + pi_d_a9_a1_proc_0
      - pi_d_a2_a9_proc_0 + pi_d_a9_a2_proc_0 - pi_d_a3_a9_proc_0
      + pi_d_a9_a3_proc_0 - pi_d_a4_a9_proc_0 + pi_d_a9_a4_proc_0
      - pi_d_a5_a9_proc_0 + pi_d_a9_a5_proc_0 - pi_d_a6_a9_proc_0
      + pi_d_a9_a6_proc_0 - pi_d_a7_a9_proc_0 + pi_d_a9_a7_proc_0
      - pi_d_a8_a9_proc_0 + pi_d_a9_a8_proc_0 >= 0
 c28: 1292 pi_p_a9_a2 + 1292 pi_p_a9_a4 + 1292 pi_d_a9_a0_proc_0
      + 1292 pi_d_a9_a1_proc_0 + 1292 pi_d_a9_a2_proc_0 + 1292 pi_d_a9_a3_proc_0
      + 1292 pi_d_a9_a4_proc_0 + 1292 pi_d_a9_a5_proc_0 + 1292 pi_d_a9_a6_proc_0
      + 1292 pi_d_a9_a7_proc_0 + 1292 pi_d_a9_a8_proc_0 + pi_y1_a9
      + pi_y2_a9_proc_0 >= 0

Bounds
       pi_y1_a0 Free
       pi_y1_a1 Free
       pi_y1_a2 Free
       pi_y1_a3 Free
       pi_y1_a4 Free
       pi_y1_a5 Free
       pi_y1_a6 Free
       pi_y1_a7 Free
       pi_y1_a8 Free
       pi_y1_a9 Free
End
