benchmark/results/graph__10-1000-0.10-02_13/graph__10-1000-0.10-02_13_QuintonOs_Benders_sub.txt
solution for: Quinton Bounded Benders_dual_sub
objective: 0.000189825
status: OPTIMAL_SOLUTION(2)
pi_p_a9_a2=0.000
pi_p_a3_a9=0.000
pi_d_a2_a5_proc_0=0.000
pi_d_a6_a3_proc_0=0.000
pi_d_a5_a7_proc_0=0.000
pi_d_a7_a6_proc_0=0.000
pi_y1_a2=-0.239
pi_y1_a3=-0.129
pi_y1_a5=-0.031
pi_y1_a6=-0.175
pi_y1_a7=-0.181
pi_y1_a9=-0.245
pi_y2_a5_proc_1=0.031
pi_y2_a6_proc_1=0.175
